100
128
13
7
63
44
60
50
20
10
64
16
18
16
49
42
1
51
24
13
31
58
56
36
13
56
30
29
11
9
35
55
53
28
46
17
17
16
46
45
21
59
19
50
1
50
17
61
29
18
61
39
36
19
44
46
56
23
24
18
34
22
28
18
55
37
56
35
39
32
57
27
54
8
63
19
37
27
64
20
56
20
20
32
22
26
28
58
43
30
54
21
53
27
50
34
43
22
42
44
42
1